(set-logic QF_S)
(declare-fun V8 () String )
(declare-fun V29 () String )
(declare-fun V18 () String )
(declare-fun V19 () String )
(declare-fun V1 () String )
(declare-fun V28 () String )
(declare-fun V31 () String )
(declare-fun V9 () String )
(declare-fun V3 () String )
(declare-fun V32 () String )
(declare-fun V27 () String )
(declare-fun V12 () String )
(declare-fun V6 () String )
(declare-fun V23 () String )
(declare-fun V15 () String )
(declare-fun V11 () String )
(declare-fun V26 () String )
(declare-fun V20 () String )
(declare-fun V10 () String )
(declare-fun V17 () String )
(declare-fun V21 () String )
(declare-fun V22 () String )
(declare-fun V16 () String )
(declare-fun V13 () String )
(declare-fun V14 () String )
(assert (= (str.++ V28 V29 ) (str.++ (str.++ V8 V9 ) V10 ) ) )
(assert (= (str.++ V28 V29 ) (str.++ (str.++ V14 "+" ) V15 ) ) )
(assert (= (str.++ V28 V29 ) (str.++ (str.++ V31 "+" ) V32 ) ) )
(assert (= (str.++ V21 V22 ) (str.++ (str.++ (str.++ V6 V11 ) V12 ) V13 ) ) )
(assert (= (str.++ (str.++ V3 V28 ) V29 ) (str.++ (str.++ V18 "/" ) V19 ) ) )
(assert (= (str.++ (str.++ V3 V28 ) V29 ) (str.++ (str.++ V26 "/" ) V27 ) ) )
(assert (= (str.++ (str.++ V3 V28 ) V29 ) (str.++ (str.++ (str.++ (str.++ V6 V11 ) V12 ) V13 ) V23 ) ) )
(assert (= (str.++ (str.++ V16 "@" ) V17 ) (str.++ (str.++ (str.++ V6 V11 ) V12 ) V13 ) ) )
(assert (= (str.++ (str.++ (str.++ V1 V3 ) V28 ) V29 ) (str.++ "mongodb://" V20 ) ) )
( check-sat )
